c description: Random 3-CNF over 15 variables and 95 clauses
c generator: CNFgen (0.9.0)
c copyright: (C) 2012-2020 Massimo Lauria <massimo.lauria@uniroma1.it>
c url: https://massimolauria.net/cnfgen
c
p cnf 15 95
-3 9 -10 0
1 -7 -15 0
-2 -6 13 0
-9 10 15 0
-2 7 14 0
5 14 15 0
7 11 -13 0
-1 5 -12 0
2 -6 -10 0
-2 -7 -9 0
2 -5 -10 0
1 13 -15 0
1 -6 -12 0
1 -5 -12 0
-3 -10 14 0
-7 -10 -14 0
-1 4 -9 0
1 -2 3 0
-2 -5 -6 0
-1 -2 12 0
-6 11 14 0
3 12 13 0
-5 6 11 0
-1 4 -6 0
4 6 -14 0
2 5 -7 0
-4 -8 13 0
3 10 15 0
-5 7 -12 0
-5 7 -13 0
-2 -7 -15 0
6 7 9 0
6 -11 -15 0
-2 -3 5 0
2 7 12 0
-6 10 12 0
-4 -7 -12 0
-3 6 13 0
7 -13 -14 0
4 5 9 0
1 8 12 0
-2 -7 12 0
-5 6 15 0
-3 -6 -7 0
5 -8 15 0
-1 2 -9 0
7 11 15 0
2 -4 -13 0
9 -11 -13 0
2 13 -15 0
4 9 10 0
2 11 15 0
-4 -11 -14 0
-2 6 11 0
5 9 -13 0
-2 -5 14 0
-7 11 13 0
-6 9 15 0
1 -11 -13 0
2 -6 8 0
-7 -12 -13 0
-10 -12 14 0
-2 -7 -10 0
-4 5 -15 0
-1 -4 14 0
-8 -10 11 0
-2 9 -13 0
1 -12 13 0
-1 6 11 0
1 4 6 0
-4 11 -12 0
-1 -2 -13 0
-2 5 -11 0
2 10 14 0
-2 3 -9 0
5 -6 -8 0
-7 -9 -12 0
-3 -4 11 0
-4 -5 -12 0
4 -6 7 0
4 -9 12 0
2 3 -8 0
-4 -8 -12 0
6 9 15 0
4 -6 -14 0
-8 11 -15 0
4 -12 13 0
-1 3 11 0
2 -6 -11 0
6 10 13 0
7 8 11 0
4 -13 -15 0
3 6 -12 0
3 5 -15 0
-1 -3 -7 0